\ENCODING=ISO-8859-1
\Problem name: IloCplex

Minimize
 obj1: x0_10
Subject To
 c_1(0):    x0_10 + x0_1 + x0_2 + x0_3 + x0_4 + x0_5 + x0_6 + x0_7 + x0_8
            + x0_9 - x1_0 - x2_0 - x3_0 - x4_0 - x5_0 - x6_0 - x7_0 - x8_0
            - x9_0 - x10_0  = 70
 c_1(1):    - x0_1 + x1_0 + x1_2 + x1_3 + x1_4 + x1_5 + x1_6 + x1_7 + x1_8
            + x1_9 + x1_10 - x2_1 - x3_1 - x4_1 - x5_1 - x6_1 - x7_1 - x8_1
            - x9_1 - x10_1  = 0
 c_1(2):    - x0_2 + x2_0 - x1_2 + x2_1 + x2_3 + x2_4 + x2_5 + x2_6 + x2_7
            + x2_8 + x2_9 + x2_10 - x3_2 - x4_2 - x5_2 - x6_2 - x7_2 - x8_2
            - x9_2 - x10_2  = 0
 c_1(3):    - x0_3 + x3_0 - x1_3 + x3_1 - x2_3 + x3_2 + x3_4 + x3_5 + x3_6
            + x3_7 + x3_8 + x3_9 + x3_10 - x4_3 - x5_3 - x6_3 - x7_3 - x8_3
            - x9_3 - x10_3  = 0
 c_1(4):    - x0_4 + x4_0 - x1_4 + x4_1 - x2_4 + x4_2 - x3_4 + x4_3 + x4_5
            + x4_6 + x4_7 + x4_8 + x4_9 + x4_10 - x5_4 - x6_4 - x7_4 - x8_4
            - x9_4 - x10_4  = 0
 c_1(5):    - x0_5 + x5_0 - x1_5 + x5_1 - x2_5 + x5_2 - x3_5 + x5_3 - x4_5
            + x5_4 + x5_6 + x5_7 + x5_8 + x5_9 + x5_10 - x6_5 - x7_5 - x8_5
            - x9_5 - x10_5  = 0
 c_1(6):    - x0_6 + x6_0 - x1_6 + x6_1 - x2_6 + x6_2 - x3_6 + x6_3 - x4_6
            + x6_4 - x5_6 + x6_5 + x6_7 + x6_8 + x6_9 + x6_10 - x7_6 - x8_6
            - x9_6 - x10_6  = 0
 c_1(7):    - x0_7 + x7_0 - x1_7 + x7_1 - x2_7 + x7_2 - x3_7 + x7_3 - x4_7
            + x7_4 - x5_7 + x7_5 - x6_7 + x7_6 + x7_8 + x7_9 + x7_10 - x8_7
            - x9_7 - x10_7  = 0
 c_1(8):    - x0_8 + x8_0 - x1_8 + x8_1 - x2_8 + x8_2 - x3_8 + x8_3 - x4_8
            + x8_4 - x5_8 + x8_5 - x6_8 + x8_6 - x7_8 + x8_7 + x8_9 + x8_10
            - x9_8 - x10_8  = 0
 c_1(9):    - x0_9 + x9_0 - x1_9 + x9_1 - x2_9 + x9_2 - x3_9 + x9_3 - x4_9
            + x9_4 - x5_9 + x9_5 - x6_9 + x9_6 - x7_9 + x9_7 - x8_9 + x9_8
            + x9_10 - x10_9  = 0
 c_1(10):   - x0_10 + x10_0 - x1_10 + x10_1 - x2_10 + x10_2 - x3_10 + x10_3
            - x4_10 + x10_4 - x5_10 + x10_5 - x6_10 + x10_6 - x7_10 + x10_7
            - x8_10 + x10_8 - x9_10 + x10_9  = -70
 c_2(0,1):  x0_1 <= 20
 c_3(0,1):  x0_1 >= 0
 c_2(0,2):  x0_2 <= 30
 c_3(0,2):  x0_2 >= 0
 c_2(0,3):  x0_3 <= 20
 c_3(0,3):  x0_3 >= 0
 c_2(0,4):  x0_4 <= 0
 c_3(0,4):  x0_4 >= 0
 c_2(0,5):  x0_5 <= 0
 c_3(0,5):  x0_5 >= 0
 c_2(0,6):  x0_6 <= 0
 c_3(0,6):  x0_6 >= 0
 c_2(0,7):  x0_7 <= 0
 c_3(0,7):  x0_7 >= 0
 c_2(0,8):  x0_8 <= 0
 c_3(0,8):  x0_8 >= 0
 c_2(0,9):  x0_9 <= 0
 c_3(0,9):  x0_9 >= 0
 c_2(0,10): x0_10 <= 2147483647
 c_3(0,10): x0_10 >= 0
 c_2(1,0):  x1_0 <= 0
 c_3(1,0):  x1_0 >= 0
 c_2(1,2):  x1_2 <= 0
 c_3(1,2):  x1_2 >= 0
 c_2(1,3):  x1_3 <= 0
 c_3(1,3):  x1_3 >= 0
 c_2(1,4):  x1_4 <= 20
 c_3(1,4):  x1_4 >= 0
 c_2(1,5):  x1_5 <= 0
 c_3(1,5):  x1_5 >= 0
 c_2(1,6):  x1_6 <= 5
 c_3(1,6):  x1_6 >= 0
 c_2(1,7):  x1_7 <= 0
 c_3(1,7):  x1_7 >= 0
 c_2(1,8):  x1_8 <= 0
 c_3(1,8):  x1_8 >= 0
 c_2(1,9):  x1_9 <= 0
 c_3(1,9):  x1_9 >= 0
 c_2(1,10): x1_10 <= 0
 c_3(1,10): x1_10 >= 0
 c_2(2,0):  x2_0 <= 0
 c_3(2,0):  x2_0 >= 0
 c_2(2,1):  x2_1 <= 5
 c_3(2,1):  x2_1 >= 0
 c_2(2,3):  x2_3 <= 0
 c_3(2,3):  x2_3 >= 0
 c_2(2,4):  x2_4 <= 0
 c_3(2,4):  x2_4 >= 0
 c_2(2,5):  x2_5 <= 20
 c_3(2,5):  x2_5 >= 0
 c_2(2,6):  x2_6 <= 0
 c_3(2,6):  x2_6 >= 0
 c_2(2,7):  x2_7 <= 0
 c_3(2,7):  x2_7 >= 0
 c_2(2,8):  x2_8 <= 0
 c_3(2,8):  x2_8 >= 0
 c_2(2,9):  x2_9 <= 0
 c_3(2,9):  x2_9 >= 0
 c_2(2,10): x2_10 <= 0
 c_3(2,10): x2_10 >= 0
 c_2(3,0):  x3_0 <= 0
 c_3(3,0):  x3_0 >= 0
 c_2(3,1):  x3_1 <= 0
 c_3(3,1):  x3_1 >= 0
 c_2(3,2):  x3_2 <= 5
 c_3(3,2):  x3_2 >= 0
 c_2(3,4):  x3_4 <= 0
 c_3(3,4):  x3_4 >= 0
 c_2(3,5):  x3_5 <= 0
 c_3(3,5):  x3_5 >= 0
 c_2(3,6):  x3_6 <= 20
 c_3(3,6):  x3_6 >= 0
 c_2(3,7):  x3_7 <= 0
 c_3(3,7):  x3_7 >= 0
 c_2(3,8):  x3_8 <= 0
 c_3(3,8):  x3_8 >= 0
 c_2(3,9):  x3_9 <= 0
 c_3(3,9):  x3_9 >= 0
 c_2(3,10): x3_10 <= 0
 c_3(3,10): x3_10 >= 0
 c_2(4,0):  x4_0 <= 0
 c_3(4,0):  x4_0 >= 0
 c_2(4,1):  x4_1 <= 0
 c_3(4,1):  x4_1 >= 0
 c_2(4,2):  x4_2 <= 0
 c_3(4,2):  x4_2 >= 0
 c_2(4,3):  x4_3 <= 0
 c_3(4,3):  x4_3 >= 0
 c_2(4,5):  x4_5 <= 0
 c_3(4,5):  x4_5 >= 0
 c_2(4,6):  x4_6 <= 0
 c_3(4,6):  x4_6 >= 0
 c_2(4,7):  x4_7 <= 20
 c_3(4,7):  x4_7 >= 0
 c_2(4,8):  x4_8 <= 0
 c_3(4,8):  x4_8 >= 0
 c_2(4,9):  x4_9 <= 20
 c_3(4,9):  x4_9 >= 0
 c_2(4,10): x4_10 <= 0
 c_3(4,10): x4_10 >= 0
 c_2(5,0):  x5_0 <= 0
 c_3(5,0):  x5_0 >= 0
 c_2(5,1):  x5_1 <= 5
 c_3(5,1):  x5_1 >= 0
 c_2(5,2):  x5_2 <= 0
 c_3(5,2):  x5_2 >= 0
 c_2(5,3):  x5_3 <= 0
 c_3(5,3):  x5_3 >= 0
 c_2(5,4):  x5_4 <= 5
 c_3(5,4):  x5_4 >= 0
 c_2(5,6):  x5_6 <= 5
 c_3(5,6):  x5_6 >= 0
 c_2(5,7):  x5_7 <= 5
 c_3(5,7):  x5_7 >= 0
 c_2(5,8):  x5_8 <= 20
 c_3(5,8):  x5_8 >= 0
 c_2(5,9):  x5_9 <= 0
 c_3(5,9):  x5_9 >= 0
 c_2(5,10): x5_10 <= 0
 c_3(5,10): x5_10 >= 0
 c_2(6,0):  x6_0 <= 0
 c_3(6,0):  x6_0 >= 0
 c_2(6,1):  x6_1 <= 0
 c_3(6,1):  x6_1 >= 0
 c_2(6,2):  x6_2 <= 10
 c_3(6,2):  x6_2 >= 0
 c_2(6,3):  x6_3 <= 0
 c_3(6,3):  x6_3 >= 0
 c_2(6,4):  x6_4 <= 0
 c_3(6,4):  x6_4 >= 0
 c_2(6,5):  x6_5 <= 0
 c_3(6,5):  x6_5 >= 0
 c_2(6,7):  x6_7 <= 0
 c_3(6,7):  x6_7 >= 0
 c_2(6,8):  x6_8 <= 20
 c_3(6,8):  x6_8 >= 0
 c_2(6,9):  x6_9 <= 10
 c_3(6,9):  x6_9 >= 0
 c_2(6,10): x6_10 <= 0
 c_3(6,10): x6_10 >= 0
 c_2(7,0):  x7_0 <= 0
 c_3(7,0):  x7_0 >= 0
 c_2(7,1):  x7_1 <= 0
 c_3(7,1):  x7_1 >= 0
 c_2(7,2):  x7_2 <= 0
 c_3(7,2):  x7_2 >= 0
 c_2(7,3):  x7_3 <= 0
 c_3(7,3):  x7_3 >= 0
 c_2(7,4):  x7_4 <= 0
 c_3(7,4):  x7_4 >= 0
 c_2(7,5):  x7_5 <= 0
 c_3(7,5):  x7_5 >= 0
 c_2(7,6):  x7_6 <= 0
 c_3(7,6):  x7_6 >= 0
 c_2(7,8):  x7_8 <= 6
 c_3(7,8):  x7_8 >= 0
 c_2(7,9):  x7_9 <= 0
 c_3(7,9):  x7_9 >= 0
 c_2(7,10): x7_10 <= 20
 c_3(7,10): x7_10 >= 0
 c_2(8,0):  x8_0 <= 0
 c_3(8,0):  x8_0 >= 0
 c_2(8,1):  x8_1 <= 0
 c_3(8,1):  x8_1 >= 0
 c_2(8,2):  x8_2 <= 0
 c_3(8,2):  x8_2 >= 0
 c_2(8,3):  x8_3 <= 0
 c_3(8,3):  x8_3 >= 0
 c_2(8,4):  x8_4 <= 0
 c_3(8,4):  x8_4 >= 0
 c_2(8,5):  x8_5 <= 0
 c_3(8,5):  x8_5 >= 0
 c_2(8,6):  x8_6 <= 0
 c_3(8,6):  x8_6 >= 0
 c_2(8,7):  x8_7 <= 0
 c_3(8,7):  x8_7 >= 0
 c_2(8,9):  x8_9 <= 6
 c_3(8,9):  x8_9 >= 0
 c_2(8,10): x8_10 <= 30
 c_3(8,10): x8_10 >= 0
 c_2(9,0):  x9_0 <= 0
 c_3(9,0):  x9_0 >= 0
 c_2(9,1):  x9_1 <= 0
 c_3(9,1):  x9_1 >= 0
 c_2(9,2):  x9_2 <= 0
 c_3(9,2):  x9_2 >= 0
 c_2(9,3):  x9_3 <= 0
 c_3(9,3):  x9_3 >= 0
 c_2(9,4):  x9_4 <= 0
 c_3(9,4):  x9_4 >= 0
 c_2(9,5):  x9_5 <= 0
 c_3(9,5):  x9_5 >= 0
 c_2(9,6):  x9_6 <= 0
 c_3(9,6):  x9_6 >= 0
 c_2(9,7):  x9_7 <= 0
 c_3(9,7):  x9_7 >= 0
 c_2(9,8):  x9_8 <= 0
 c_3(9,8):  x9_8 >= 0
 c_2(9,10): x9_10 <= 25
 c_3(9,10): x9_10 >= 0
 c_2(10,0): x10_0 <= 0
 c_3(10,0): x10_0 >= 0
 c_2(10,1): x10_1 <= 0
 c_3(10,1): x10_1 >= 0
 c_2(10,2): x10_2 <= 0
 c_3(10,2): x10_2 >= 0
 c_2(10,3): x10_3 <= 0
 c_3(10,3): x10_3 >= 0
 c_2(10,4): x10_4 <= 0
 c_3(10,4): x10_4 >= 0
 c_2(10,5): x10_5 <= 0
 c_3(10,5): x10_5 >= 0
 c_2(10,6): x10_6 <= 0
 c_3(10,6): x10_6 >= 0
 c_2(10,7): x10_7 <= 0
 c_3(10,7): x10_7 >= 0
 c_2(10,8): x10_8 <= 0
 c_3(10,8): x10_8 >= 0
 c_2(10,9): x10_9 <= 0
 c_3(10,9): x10_9 >= 0
Bounds
      x0_10 >= 0
      x0_1 >= 0
      x0_2 >= 0
      x0_3 >= 0
      x0_4 >= 0
      x0_5 >= 0
      x0_6 >= 0
      x0_7 >= 0
      x0_8 >= 0
      x0_9 >= 0
      x1_0 >= 0
      x2_0 >= 0
      x3_0 >= 0
      x4_0 >= 0
      x5_0 >= 0
      x6_0 >= 0
      x7_0 >= 0
      x8_0 >= 0
      x9_0 >= 0
      x10_0 >= 0
      x1_2 >= 0
      x1_3 >= 0
      x1_4 >= 0
      x1_5 >= 0
      x1_6 >= 0
      x1_7 >= 0
      x1_8 >= 0
      x1_9 >= 0
      x1_10 >= 0
      x2_1 >= 0
      x3_1 >= 0
      x4_1 >= 0
      x5_1 >= 0
      x6_1 >= 0
      x7_1 >= 0
      x8_1 >= 0
      x9_1 >= 0
      x10_1 >= 0
      x2_3 >= 0
      x2_4 >= 0
      x2_5 >= 0
      x2_6 >= 0
      x2_7 >= 0
      x2_8 >= 0
      x2_9 >= 0
      x2_10 >= 0
      x3_2 >= 0
      x4_2 >= 0
      x5_2 >= 0
      x6_2 >= 0
      x7_2 >= 0
      x8_2 >= 0
      x9_2 >= 0
      x10_2 >= 0
      x3_4 >= 0
      x3_5 >= 0
      x3_6 >= 0
      x3_7 >= 0
      x3_8 >= 0
      x3_9 >= 0
      x3_10 >= 0
      x4_3 >= 0
      x5_3 >= 0
      x6_3 >= 0
      x7_3 >= 0
      x8_3 >= 0
      x9_3 >= 0
      x10_3 >= 0
      x4_5 >= 0
      x4_6 >= 0
      x4_7 >= 0
      x4_8 >= 0
      x4_9 >= 0
      x4_10 >= 0
      x5_4 >= 0
      x6_4 >= 0
      x7_4 >= 0
      x8_4 >= 0
      x9_4 >= 0
      x10_4 >= 0
      x5_6 >= 0
      x5_7 >= 0
      x5_8 >= 0
      x5_9 >= 0
      x5_10 >= 0
      x6_5 >= 0
      x7_5 >= 0
      x8_5 >= 0
      x9_5 >= 0
      x10_5 >= 0
      x6_7 >= 0
      x6_8 >= 0
      x6_9 >= 0
      x6_10 >= 0
      x7_6 >= 0
      x8_6 >= 0
      x9_6 >= 0
      x10_6 >= 0
      x7_8 >= 0
      x7_9 >= 0
      x7_10 >= 0
      x8_7 >= 0
      x9_7 >= 0
      x10_7 >= 0
      x8_9 >= 0
      x8_10 >= 0
      x9_8 >= 0
      x10_8 >= 0
      x9_10 >= 0
      x10_9 >= 0
Generals
 x0_10  x0_1  x0_2  x0_3  x0_4  x0_5  x0_6  x0_7  x0_8  x0_9  x1_0  x2_0  x3_0 
 x4_0  x5_0  x6_0  x7_0  x8_0  x9_0  x10_0  x1_2  x1_3  x1_4  x1_5  x1_6  x1_7 
 x1_8  x1_9  x1_10  x2_1  x3_1  x4_1  x5_1  x6_1  x7_1  x8_1  x9_1  x10_1 
 x2_3  x2_4  x2_5  x2_6  x2_7  x2_8  x2_9  x2_10  x3_2  x4_2  x5_2  x6_2  x7_2 
 x8_2  x9_2  x10_2  x3_4  x3_5  x3_6  x3_7  x3_8  x3_9  x3_10  x4_3  x5_3 
 x6_3  x7_3  x8_3  x9_3  x10_3  x4_5  x4_6  x4_7  x4_8  x4_9  x4_10  x5_4 
 x6_4  x7_4  x8_4  x9_4  x10_4  x5_6  x5_7  x5_8  x5_9  x5_10  x6_5  x7_5 
 x8_5  x9_5  x10_5  x6_7  x6_8  x6_9  x6_10  x7_6  x8_6  x9_6  x10_6  x7_8 
 x7_9  x7_10  x8_7  x9_7  x10_7  x8_9  x8_10  x9_8  x10_8  x9_10  x10_9 
End
